9264
6041
3933
2292
9934
4039
5477
9513
1061
3797
2632
8026
6588
9274
1037
5392
2529
5528
2245
1330
6637
7950
9385
2923
752
1770
8105
5695
8357
6819
6136
9844
3344
9115
3542
8104
2436
4701
7193
2285
9810
4880
1812
1621
3702
10123
992
4988
2934
8067
